p cnf 119 2506
1 8 15 22 29 36 43 50 57 64 71 78 85 92 99 106 113 0
2 9 16 23 30 37 44 51 58 65 72 79 86 93 100 107 114 0
3 10 17 24 31 38 45 52 59 66 73 80 87 94 101 108 115 0
4 11 18 25 32 39 46 53 60 67 74 81 88 95 102 109 116 0
5 12 19 26 33 40 47 54 61 68 75 82 89 96 103 110 117 0
6 13 20 27 34 41 48 55 62 69 76 83 90 97 104 111 118 0
7 14 21 28 35 42 49 56 63 70 77 84 91 98 105 112 119 0
-1 -2 0
-1 -3 0
-1 -4 0
-1 -5 0
-1 -6 0
-1 -7 0
-2 -3 0
-2 -4 0
-2 -5 0
-2 -6 0
-2 -7 0
-3 -4 0
-3 -5 0
-3 -6 0
-3 -7 0
-4 -5 0
-4 -6 0
-4 -7 0
-5 -6 0
-5 -7 0
-6 -7 0
-8 -9 0
-8 -10 0
-8 -11 0
-8 -12 0
-8 -13 0
-8 -14 0
-9 -10 0
-9 -11 0
-9 -12 0
-9 -13 0
-9 -14 0
-10 -11 0
-10 -12 0
-10 -13 0
-10 -14 0
-11 -12 0
-11 -13 0
-11 -14 0
-12 -13 0
-12 -14 0
-13 -14 0
-15 -16 0
-15 -17 0
-15 -18 0
-15 -19 0
-15 -20 0
-15 -21 0
-16 -17 0
-16 -18 0
-16 -19 0
-16 -20 0
-16 -21 0
-17 -18 0
-17 -19 0
-17 -20 0
-17 -21 0
-18 -19 0
-18 -20 0
-18 -21 0
-19 -20 0
-19 -21 0
-20 -21 0
-22 -23 0
-22 -24 0
-22 -25 0
-22 -26 0
-22 -27 0
-22 -28 0
-23 -24 0
-23 -25 0
-23 -26 0
-23 -27 0
-23 -28 0
-24 -25 0
-24 -26 0
-24 -27 0
-24 -28 0
-25 -26 0
-25 -27 0
-25 -28 0
-26 -27 0
-26 -28 0
-27 -28 0
-29 -30 0
-29 -31 0
-29 -32 0
-29 -33 0
-29 -34 0
-29 -35 0
-30 -31 0
-30 -32 0
-30 -33 0
-30 -34 0
-30 -35 0
-31 -32 0
-31 -33 0
-31 -34 0
-31 -35 0
-32 -33 0
-32 -34 0
-32 -35 0
-33 -34 0
-33 -35 0
-34 -35 0
-36 -37 0
-36 -38 0
-36 -39 0
-36 -40 0
-36 -41 0
-36 -42 0
-37 -38 0
-37 -39 0
-37 -40 0
-37 -41 0
-37 -42 0
-38 -39 0
-38 -40 0
-38 -41 0
-38 -42 0
-39 -40 0
-39 -41 0
-39 -42 0
-40 -41 0
-40 -42 0
-41 -42 0
-43 -44 0
-43 -45 0
-43 -46 0
-43 -47 0
-43 -48 0
-43 -49 0
-44 -45 0
-44 -46 0
-44 -47 0
-44 -48 0
-44 -49 0
-45 -46 0
-45 -47 0
-45 -48 0
-45 -49 0
-46 -47 0
-46 -48 0
-46 -49 0
-47 -48 0
-47 -49 0
-48 -49 0
-50 -51 0
-50 -52 0
-50 -53 0
-50 -54 0
-50 -55 0
-50 -56 0
-51 -52 0
-51 -53 0
-51 -54 0
-51 -55 0
-51 -56 0
-52 -53 0
-52 -54 0
-52 -55 0
-52 -56 0
-53 -54 0
-53 -55 0
-53 -56 0
-54 -55 0
-54 -56 0
-55 -56 0
-57 -58 0
-57 -59 0
-57 -60 0
-57 -61 0
-57 -62 0
-57 -63 0
-58 -59 0
-58 -60 0
-58 -61 0
-58 -62 0
-58 -63 0
-59 -60 0
-59 -61 0
-59 -62 0
-59 -63 0
-60 -61 0
-60 -62 0
-60 -63 0
-61 -62 0
-61 -63 0
-62 -63 0
-64 -65 0
-64 -66 0
-64 -67 0
-64 -68 0
-64 -69 0
-64 -70 0
-65 -66 0
-65 -67 0
-65 -68 0
-65 -69 0
-65 -70 0
-66 -67 0
-66 -68 0
-66 -69 0
-66 -70 0
-67 -68 0
-67 -69 0
-67 -70 0
-68 -69 0
-68 -70 0
-69 -70 0
-71 -72 0
-71 -73 0
-71 -74 0
-71 -75 0
-71 -76 0
-71 -77 0
-72 -73 0
-72 -74 0
-72 -75 0
-72 -76 0
-72 -77 0
-73 -74 0
-73 -75 0
-73 -76 0
-73 -77 0
-74 -75 0
-74 -76 0
-74 -77 0
-75 -76 0
-75 -77 0
-76 -77 0
-78 -79 0
-78 -80 0
-78 -81 0
-78 -82 0
-78 -83 0
-78 -84 0
-79 -80 0
-79 -81 0
-79 -82 0
-79 -83 0
-79 -84 0
-80 -81 0
-80 -82 0
-80 -83 0
-80 -84 0
-81 -82 0
-81 -83 0
-81 -84 0
-82 -83 0
-82 -84 0
-83 -84 0
-85 -86 0
-85 -87 0
-85 -88 0
-85 -89 0
-85 -90 0
-85 -91 0
-86 -87 0
-86 -88 0
-86 -89 0
-86 -90 0
-86 -91 0
-87 -88 0
-87 -89 0
-87 -90 0
-87 -91 0
-88 -89 0
-88 -90 0
-88 -91 0
-89 -90 0
-89 -91 0
-90 -91 0
-92 -93 0
-92 -94 0
-92 -95 0
-92 -96 0
-92 -97 0
-92 -98 0
-93 -94 0
-93 -95 0
-93 -96 0
-93 -97 0
-93 -98 0
-94 -95 0
-94 -96 0
-94 -97 0
-94 -98 0
-95 -96 0
-95 -97 0
-95 -98 0
-96 -97 0
-96 -98 0
-97 -98 0
-99 -100 0
-99 -101 0
-99 -102 0
-99 -103 0
-99 -104 0
-99 -105 0
-100 -101 0
-100 -102 0
-100 -103 0
-100 -104 0
-100 -105 0
-101 -102 0
-101 -103 0
-101 -104 0
-101 -105 0
-102 -103 0
-102 -104 0
-102 -105 0
-103 -104 0
-103 -105 0
-104 -105 0
-106 -107 0
-106 -108 0
-106 -109 0
-106 -110 0
-106 -111 0
-106 -112 0
-107 -108 0
-107 -109 0
-107 -110 0
-107 -111 0
-107 -112 0
-108 -109 0
-108 -110 0
-108 -111 0
-108 -112 0
-109 -110 0
-109 -111 0
-109 -112 0
-110 -111 0
-110 -112 0
-111 -112 0
-113 -114 0
-113 -115 0
-113 -116 0
-113 -117 0
-113 -118 0
-113 -119 0
-114 -115 0
-114 -116 0
-114 -117 0
-114 -118 0
-114 -119 0
-115 -116 0
-115 -117 0
-115 -118 0
-115 -119 0
-116 -117 0
-116 -118 0
-116 -119 0
-117 -118 0
-117 -119 0
-118 -119 0
-1 -9 0
-1 -10 0
-1 -11 0
-1 -12 0
-1 -13 0
-1 -14 0
-2 -8 0
-2 -10 0
-2 -11 0
-2 -12 0
-2 -13 0
-2 -14 0
-3 -8 0
-3 -9 0
-3 -11 0
-3 -12 0
-3 -13 0
-3 -14 0
-4 -8 0
-4 -9 0
-4 -10 0
-4 -12 0
-4 -13 0
-4 -14 0
-5 -8 0
-5 -9 0
-5 -10 0
-5 -11 0
-5 -13 0
-5 -14 0
-6 -8 0
-6 -9 0
-6 -10 0
-6 -11 0
-6 -12 0
-6 -14 0
-7 -8 0
-7 -9 0
-7 -10 0
-7 -11 0
-7 -12 0
-7 -13 0
-1 -30 0
-1 -31 0
-1 -32 0
-1 -33 0
-1 -34 0
-1 -35 0
-2 -29 0
-2 -31 0
-2 -32 0
-2 -33 0
-2 -34 0
-2 -35 0
-3 -29 0
-3 -30 0
-3 -32 0
-3 -33 0
-3 -34 0
-3 -35 0
-4 -29 0
-4 -30 0
-4 -31 0
-4 -33 0
-4 -34 0
-4 -35 0
-5 -29 0
-5 -30 0
-5 -31 0
-5 -32 0
-5 -34 0
-5 -35 0
-6 -29 0
-6 -30 0
-6 -31 0
-6 -32 0
-6 -33 0
-6 -35 0
-7 -29 0
-7 -30 0
-7 -31 0
-7 -32 0
-7 -33 0
-7 -34 0
-1 -37 0
-1 -38 0
-1 -39 0
-1 -40 0
-1 -41 0
-1 -42 0
-2 -36 0
-2 -38 0
-2 -39 0
-2 -40 0
-2 -41 0
-2 -42 0
-3 -36 0
-3 -37 0
-3 -39 0
-3 -40 0
-3 -41 0
-3 -42 0
-4 -36 0
-4 -37 0
-4 -38 0
-4 -40 0
-4 -41 0
-4 -42 0
-5 -36 0
-5 -37 0
-5 -38 0
-5 -39 0
-5 -41 0
-5 -42 0
-6 -36 0
-6 -37 0
-6 -38 0
-6 -39 0
-6 -40 0
-6 -42 0
-7 -36 0
-7 -37 0
-7 -38 0
-7 -39 0
-7 -40 0
-7 -41 0
-1 -44 0
-1 -45 0
-1 -46 0
-1 -47 0
-1 -48 0
-1 -49 0
-2 -43 0
-2 -45 0
-2 -46 0
-2 -47 0
-2 -48 0
-2 -49 0
-3 -43 0
-3 -44 0
-3 -46 0
-3 -47 0
-3 -48 0
-3 -49 0
-4 -43 0
-4 -44 0
-4 -45 0
-4 -47 0
-4 -48 0
-4 -49 0
-5 -43 0
-5 -44 0
-5 -45 0
-5 -46 0
-5 -48 0
-5 -49 0
-6 -43 0
-6 -44 0
-6 -45 0
-6 -46 0
-6 -47 0
-6 -49 0
-7 -43 0
-7 -44 0
-7 -45 0
-7 -46 0
-7 -47 0
-7 -48 0
-1 -107 0
-1 -108 0
-1 -109 0
-1 -110 0
-1 -111 0
-1 -112 0
-2 -106 0
-2 -108 0
-2 -109 0
-2 -110 0
-2 -111 0
-2 -112 0
-3 -106 0
-3 -107 0
-3 -109 0
-3 -110 0
-3 -111 0
-3 -112 0
-4 -106 0
-4 -107 0
-4 -108 0
-4 -110 0
-4 -111 0
-4 -112 0
-5 -106 0
-5 -107 0
-5 -108 0
-5 -109 0
-5 -111 0
-5 -112 0
-6 -106 0
-6 -107 0
-6 -108 0
-6 -109 0
-6 -110 0
-6 -112 0
-7 -106 0
-7 -107 0
-7 -108 0
-7 -109 0
-7 -110 0
-7 -111 0
-1 -114 0
-1 -115 0
-1 -116 0
-1 -117 0
-1 -118 0
-1 -119 0
-2 -113 0
-2 -115 0
-2 -116 0
-2 -117 0
-2 -118 0
-2 -119 0
-3 -113 0
-3 -114 0
-3 -116 0
-3 -117 0
-3 -118 0
-3 -119 0
-4 -113 0
-4 -114 0
-4 -115 0
-4 -117 0
-4 -118 0
-4 -119 0
-5 -113 0
-5 -114 0
-5 -115 0
-5 -116 0
-5 -118 0
-5 -119 0
-6 -113 0
-6 -114 0
-6 -115 0
-6 -116 0
-6 -117 0
-6 -119 0
-7 -113 0
-7 -114 0
-7 -115 0
-7 -116 0
-7 -117 0
-7 -118 0
-8 -23 0
-8 -24 0
-8 -25 0
-8 -26 0
-8 -27 0
-8 -28 0
-9 -22 0
-9 -24 0
-9 -25 0
-9 -26 0
-9 -27 0
-9 -28 0
-10 -22 0
-10 -23 0
-10 -25 0
-10 -26 0
-10 -27 0
-10 -28 0
-11 -22 0
-11 -23 0
-11 -24 0
-11 -26 0
-11 -27 0
-11 -28 0
-12 -22 0
-12 -23 0
-12 -24 0
-12 -25 0
-12 -27 0
-12 -28 0
-13 -22 0
-13 -23 0
-13 -24 0
-13 -25 0
-13 -26 0
-13 -28 0
-14 -22 0
-14 -23 0
-14 -24 0
-14 -25 0
-14 -26 0
-14 -27 0
-8 -51 0
-8 -52 0
-8 -53 0
-8 -54 0
-8 -55 0
-8 -56 0
-9 -50 0
-9 -52 0
-9 -53 0
-9 -54 0
-9 -55 0
-9 -56 0
-10 -50 0
-10 -51 0
-10 -53 0
-10 -54 0
-10 -55 0
-10 -56 0
-11 -50 0
-11 -51 0
-11 -52 0
-11 -54 0
-11 -55 0
-11 -56 0
-12 -50 0
-12 -51 0
-12 -52 0
-12 -53 0
-12 -55 0
-12 -56 0
-13 -50 0
-13 -51 0
-13 -52 0
-13 -53 0
-13 -54 0
-13 -56 0
-14 -50 0
-14 -51 0
-14 -52 0
-14 -53 0
-14 -54 0
-14 -55 0
-8 -58 0
-8 -59 0
-8 -60 0
-8 -61 0
-8 -62 0
-8 -63 0
-9 -57 0
-9 -59 0
-9 -60 0
-9 -61 0
-9 -62 0
-9 -63 0
-10 -57 0
-10 -58 0
-10 -60 0
-10 -61 0
-10 -62 0
-10 -63 0
-11 -57 0
-11 -58 0
-11 -59 0
-11 -61 0
-11 -62 0
-11 -63 0
-12 -57 0
-12 -58 0
-12 -59 0
-12 -60 0
-12 -62 0
-12 -63 0
-13 -57 0
-13 -58 0
-13 -59 0
-13 -60 0
-13 -61 0
-13 -63 0
-14 -57 0
-14 -58 0
-14 -59 0
-14 -60 0
-14 -61 0
-14 -62 0
-8 -72 0
-8 -73 0
-8 -74 0
-8 -75 0
-8 -76 0
-8 -77 0
-9 -71 0
-9 -73 0
-9 -74 0
-9 -75 0
-9 -76 0
-9 -77 0
-10 -71 0
-10 -72 0
-10 -74 0
-10 -75 0
-10 -76 0
-10 -77 0
-11 -71 0
-11 -72 0
-11 -73 0
-11 -75 0
-11 -76 0
-11 -77 0
-12 -71 0
-12 -72 0
-12 -73 0
-12 -74 0
-12 -76 0
-12 -77 0
-13 -71 0
-13 -72 0
-13 -73 0
-13 -74 0
-13 -75 0
-13 -77 0
-14 -71 0
-14 -72 0
-14 -73 0
-14 -74 0
-14 -75 0
-14 -76 0
-8 -86 0
-8 -87 0
-8 -88 0
-8 -89 0
-8 -90 0
-8 -91 0
-9 -85 0
-9 -87 0
-9 -88 0
-9 -89 0
-9 -90 0
-9 -91 0
-10 -85 0
-10 -86 0
-10 -88 0
-10 -89 0
-10 -90 0
-10 -91 0
-11 -85 0
-11 -86 0
-11 -87 0
-11 -89 0
-11 -90 0
-11 -91 0
-12 -85 0
-12 -86 0
-12 -87 0
-12 -88 0
-12 -90 0
-12 -91 0
-13 -85 0
-13 -86 0
-13 -87 0
-13 -88 0
-13 -89 0
-13 -91 0
-14 -85 0
-14 -86 0
-14 -87 0
-14 -88 0
-14 -89 0
-14 -90 0
-8 -107 0
-8 -108 0
-8 -109 0
-8 -110 0
-8 -111 0
-8 -112 0
-9 -106 0
-9 -108 0
-9 -109 0
-9 -110 0
-9 -111 0
-9 -112 0
-10 -106 0
-10 -107 0
-10 -109 0
-10 -110 0
-10 -111 0
-10 -112 0
-11 -106 0
-11 -107 0
-11 -108 0
-11 -110 0
-11 -111 0
-11 -112 0
-12 -106 0
-12 -107 0
-12 -108 0
-12 -109 0
-12 -111 0
-12 -112 0
-13 -106 0
-13 -107 0
-13 -108 0
-13 -109 0
-13 -110 0
-13 -112 0
-14 -106 0
-14 -107 0
-14 -108 0
-14 -109 0
-14 -110 0
-14 -111 0
-15 -23 0
-15 -24 0
-15 -25 0
-15 -26 0
-15 -27 0
-15 -28 0
-16 -22 0
-16 -24 0
-16 -25 0
-16 -26 0
-16 -27 0
-16 -28 0
-17 -22 0
-17 -23 0
-17 -25 0
-17 -26 0
-17 -27 0
-17 -28 0
-18 -22 0
-18 -23 0
-18 -24 0
-18 -26 0
-18 -27 0
-18 -28 0
-19 -22 0
-19 -23 0
-19 -24 0
-19 -25 0
-19 -27 0
-19 -28 0
-20 -22 0
-20 -23 0
-20 -24 0
-20 -25 0
-20 -26 0
-20 -28 0
-21 -22 0
-21 -23 0
-21 -24 0
-21 -25 0
-21 -26 0
-21 -27 0
-15 -37 0
-15 -38 0
-15 -39 0
-15 -40 0
-15 -41 0
-15 -42 0
-16 -36 0
-16 -38 0
-16 -39 0
-16 -40 0
-16 -41 0
-16 -42 0
-17 -36 0
-17 -37 0
-17 -39 0
-17 -40 0
-17 -41 0
-17 -42 0
-18 -36 0
-18 -37 0
-18 -38 0
-18 -40 0
-18 -41 0
-18 -42 0
-19 -36 0
-19 -37 0
-19 -38 0
-19 -39 0
-19 -41 0
-19 -42 0
-20 -36 0
-20 -37 0
-20 -38 0
-20 -39 0
-20 -40 0
-20 -42 0
-21 -36 0
-21 -37 0
-21 -38 0
-21 -39 0
-21 -40 0
-21 -41 0
-15 -65 0
-15 -66 0
-15 -67 0
-15 -68 0
-15 -69 0
-15 -70 0
-16 -64 0
-16 -66 0
-16 -67 0
-16 -68 0
-16 -69 0
-16 -70 0
-17 -64 0
-17 -65 0
-17 -67 0
-17 -68 0
-17 -69 0
-17 -70 0
-18 -64 0
-18 -65 0
-18 -66 0
-18 -68 0
-18 -69 0
-18 -70 0
-19 -64 0
-19 -65 0
-19 -66 0
-19 -67 0
-19 -69 0
-19 -70 0
-20 -64 0
-20 -65 0
-20 -66 0
-20 -67 0
-20 -68 0
-20 -70 0
-21 -64 0
-21 -65 0
-21 -66 0
-21 -67 0
-21 -68 0
-21 -69 0
-15 -100 0
-15 -101 0
-15 -102 0
-15 -103 0
-15 -104 0
-15 -105 0
-16 -99 0
-16 -101 0
-16 -102 0
-16 -103 0
-16 -104 0
-16 -105 0
-17 -99 0
-17 -100 0
-17 -102 0
-17 -103 0
-17 -104 0
-17 -105 0
-18 -99 0
-18 -100 0
-18 -101 0
-18 -103 0
-18 -104 0
-18 -105 0
-19 -99 0
-19 -100 0
-19 -101 0
-19 -102 0
-19 -104 0
-19 -105 0
-20 -99 0
-20 -100 0
-20 -101 0
-20 -102 0
-20 -103 0
-20 -105 0
-21 -99 0
-21 -100 0
-21 -101 0
-21 -102 0
-21 -103 0
-21 -104 0
-15 -107 0
-15 -108 0
-15 -109 0
-15 -110 0
-15 -111 0
-15 -112 0
-16 -106 0
-16 -108 0
-16 -109 0
-16 -110 0
-16 -111 0
-16 -112 0
-17 -106 0
-17 -107 0
-17 -109 0
-17 -110 0
-17 -111 0
-17 -112 0
-18 -106 0
-18 -107 0
-18 -108 0
-18 -110 0
-18 -111 0
-18 -112 0
-19 -106 0
-19 -107 0
-19 -108 0
-19 -109 0
-19 -111 0
-19 -112 0
-20 -106 0
-20 -107 0
-20 -108 0
-20 -109 0
-20 -110 0
-20 -112 0
-21 -106 0
-21 -107 0
-21 -108 0
-21 -109 0
-21 -110 0
-21 -111 0
-15 -114 0
-15 -115 0
-15 -116 0
-15 -117 0
-15 -118 0
-15 -119 0
-16 -113 0
-16 -115 0
-16 -116 0
-16 -117 0
-16 -118 0
-16 -119 0
-17 -113 0
-17 -114 0
-17 -116 0
-17 -117 0
-17 -118 0
-17 -119 0
-18 -113 0
-18 -114 0
-18 -115 0
-18 -117 0
-18 -118 0
-18 -119 0
-19 -113 0
-19 -114 0
-19 -115 0
-19 -116 0
-19 -118 0
-19 -119 0
-20 -113 0
-20 -114 0
-20 -115 0
-20 -116 0
-20 -117 0
-20 -119 0
-21 -113 0
-21 -114 0
-21 -115 0
-21 -116 0
-21 -117 0
-21 -118 0
-22 -37 0
-22 -38 0
-22 -39 0
-22 -40 0
-22 -41 0
-22 -42 0
-23 -36 0
-23 -38 0
-23 -39 0
-23 -40 0
-23 -41 0
-23 -42 0
-24 -36 0
-24 -37 0
-24 -39 0
-24 -40 0
-24 -41 0
-24 -42 0
-25 -36 0
-25 -37 0
-25 -38 0
-25 -40 0
-25 -41 0
-25 -42 0
-26 -36 0
-26 -37 0
-26 -38 0
-26 -39 0
-26 -41 0
-26 -42 0
-27 -36 0
-27 -37 0
-27 -38 0
-27 -39 0
-27 -40 0
-27 -42 0
-28 -36 0
-28 -37 0
-28 -38 0
-28 -39 0
-28 -40 0
-28 -41 0
-22 -58 0
-22 -59 0
-22 -60 0
-22 -61 0
-22 -62 0
-22 -63 0
-23 -57 0
-23 -59 0
-23 -60 0
-23 -61 0
-23 -62 0
-23 -63 0
-24 -57 0
-24 -58 0
-24 -60 0
-24 -61 0
-24 -62 0
-24 -63 0
-25 -57 0
-25 -58 0
-25 -59 0
-25 -61 0
-25 -62 0
-25 -63 0
-26 -57 0
-26 -58 0
-26 -59 0
-26 -60 0
-26 -62 0
-26 -63 0
-27 -57 0
-27 -58 0
-27 -59 0
-27 -60 0
-27 -61 0
-27 -63 0
-28 -57 0
-28 -58 0
-28 -59 0
-28 -60 0
-28 -61 0
-28 -62 0
-22 -79 0
-22 -80 0
-22 -81 0
-22 -82 0
-22 -83 0
-22 -84 0
-23 -78 0
-23 -80 0
-23 -81 0
-23 -82 0
-23 -83 0
-23 -84 0
-24 -78 0
-24 -79 0
-24 -81 0
-24 -82 0
-24 -83 0
-24 -84 0
-25 -78 0
-25 -79 0
-25 -80 0
-25 -82 0
-25 -83 0
-25 -84 0
-26 -78 0
-26 -79 0
-26 -80 0
-26 -81 0
-26 -83 0
-26 -84 0
-27 -78 0
-27 -79 0
-27 -80 0
-27 -81 0
-27 -82 0
-27 -84 0
-28 -78 0
-28 -79 0
-28 -80 0
-28 -81 0
-28 -82 0
-28 -83 0
-22 -93 0
-22 -94 0
-22 -95 0
-22 -96 0
-22 -97 0
-22 -98 0
-23 -92 0
-23 -94 0
-23 -95 0
-23 -96 0
-23 -97 0
-23 -98 0
-24 -92 0
-24 -93 0
-24 -95 0
-24 -96 0
-24 -97 0
-24 -98 0
-25 -92 0
-25 -93 0
-25 -94 0
-25 -96 0
-25 -97 0
-25 -98 0
-26 -92 0
-26 -93 0
-26 -94 0
-26 -95 0
-26 -97 0
-26 -98 0
-27 -92 0
-27 -93 0
-27 -94 0
-27 -95 0
-27 -96 0
-27 -98 0
-28 -92 0
-28 -93 0
-28 -94 0
-28 -95 0
-28 -96 0
-28 -97 0
-29 -37 0
-29 -38 0
-29 -39 0
-29 -40 0
-29 -41 0
-29 -42 0
-30 -36 0
-30 -38 0
-30 -39 0
-30 -40 0
-30 -41 0
-30 -42 0
-31 -36 0
-31 -37 0
-31 -39 0
-31 -40 0
-31 -41 0
-31 -42 0
-32 -36 0
-32 -37 0
-32 -38 0
-32 -40 0
-32 -41 0
-32 -42 0
-33 -36 0
-33 -37 0
-33 -38 0
-33 -39 0
-33 -41 0
-33 -42 0
-34 -36 0
-34 -37 0
-34 -38 0
-34 -39 0
-34 -40 0
-34 -42 0
-35 -36 0
-35 -37 0
-35 -38 0
-35 -39 0
-35 -40 0
-35 -41 0
-29 -58 0
-29 -59 0
-29 -60 0
-29 -61 0
-29 -62 0
-29 -63 0
-30 -57 0
-30 -59 0
-30 -60 0
-30 -61 0
-30 -62 0
-30 -63 0
-31 -57 0
-31 -58 0
-31 -60 0
-31 -61 0
-31 -62 0
-31 -63 0
-32 -57 0
-32 -58 0
-32 -59 0
-32 -61 0
-32 -62 0
-32 -63 0
-33 -57 0
-33 -58 0
-33 -59 0
-33 -60 0
-33 -62 0
-33 -63 0
-34 -57 0
-34 -58 0
-34 -59 0
-34 -60 0
-34 -61 0
-34 -63 0
-35 -57 0
-35 -58 0
-35 -59 0
-35 -60 0
-35 -61 0
-35 -62 0
-29 -65 0
-29 -66 0
-29 -67 0
-29 -68 0
-29 -69 0
-29 -70 0
-30 -64 0
-30 -66 0
-30 -67 0
-30 -68 0
-30 -69 0
-30 -70 0
-31 -64 0
-31 -65 0
-31 -67 0
-31 -68 0
-31 -69 0
-31 -70 0
-32 -64 0
-32 -65 0
-32 -66 0
-32 -68 0
-32 -69 0
-32 -70 0
-33 -64 0
-33 -65 0
-33 -66 0
-33 -67 0
-33 -69 0
-33 -70 0
-34 -64 0
-34 -65 0
-34 -66 0
-34 -67 0
-34 -68 0
-34 -70 0
-35 -64 0
-35 -65 0
-35 -66 0
-35 -67 0
-35 -68 0
-35 -69 0
-29 -86 0
-29 -87 0
-29 -88 0
-29 -89 0
-29 -90 0
-29 -91 0
-30 -85 0
-30 -87 0
-30 -88 0
-30 -89 0
-30 -90 0
-30 -91 0
-31 -85 0
-31 -86 0
-31 -88 0
-31 -89 0
-31 -90 0
-31 -91 0
-32 -85 0
-32 -86 0
-32 -87 0
-32 -89 0
-32 -90 0
-32 -91 0
-33 -85 0
-33 -86 0
-33 -87 0
-33 -88 0
-33 -90 0
-33 -91 0
-34 -85 0
-34 -86 0
-34 -87 0
-34 -88 0
-34 -89 0
-34 -91 0
-35 -85 0
-35 -86 0
-35 -87 0
-35 -88 0
-35 -89 0
-35 -90 0
-29 -100 0
-29 -101 0
-29 -102 0
-29 -103 0
-29 -104 0
-29 -105 0
-30 -99 0
-30 -101 0
-30 -102 0
-30 -103 0
-30 -104 0
-30 -105 0
-31 -99 0
-31 -100 0
-31 -102 0
-31 -103 0
-31 -104 0
-31 -105 0
-32 -99 0
-32 -100 0
-32 -101 0
-32 -103 0
-32 -104 0
-32 -105 0
-33 -99 0
-33 -100 0
-33 -101 0
-33 -102 0
-33 -104 0
-33 -105 0
-34 -99 0
-34 -100 0
-34 -101 0
-34 -102 0
-34 -103 0
-34 -105 0
-35 -99 0
-35 -100 0
-35 -101 0
-35 -102 0
-35 -103 0
-35 -104 0
-29 -107 0
-29 -108 0
-29 -109 0
-29 -110 0
-29 -111 0
-29 -112 0
-30 -106 0
-30 -108 0
-30 -109 0
-30 -110 0
-30 -111 0
-30 -112 0
-31 -106 0
-31 -107 0
-31 -109 0
-31 -110 0
-31 -111 0
-31 -112 0
-32 -106 0
-32 -107 0
-32 -108 0
-32 -110 0
-32 -111 0
-32 -112 0
-33 -106 0
-33 -107 0
-33 -108 0
-33 -109 0
-33 -111 0
-33 -112 0
-34 -106 0
-34 -107 0
-34 -108 0
-34 -109 0
-34 -110 0
-34 -112 0
-35 -106 0
-35 -107 0
-35 -108 0
-35 -109 0
-35 -110 0
-35 -111 0
-29 -114 0
-29 -115 0
-29 -116 0
-29 -117 0
-29 -118 0
-29 -119 0
-30 -113 0
-30 -115 0
-30 -116 0
-30 -117 0
-30 -118 0
-30 -119 0
-31 -113 0
-31 -114 0
-31 -116 0
-31 -117 0
-31 -118 0
-31 -119 0
-32 -113 0
-32 -114 0
-32 -115 0
-32 -117 0
-32 -118 0
-32 -119 0
-33 -113 0
-33 -114 0
-33 -115 0
-33 -116 0
-33 -118 0
-33 -119 0
-34 -113 0
-34 -114 0
-34 -115 0
-34 -116 0
-34 -117 0
-34 -119 0
-35 -113 0
-35 -114 0
-35 -115 0
-35 -116 0
-35 -117 0
-35 -118 0
-36 -44 0
-36 -45 0
-36 -46 0
-36 -47 0
-36 -48 0
-36 -49 0
-37 -43 0
-37 -45 0
-37 -46 0
-37 -47 0
-37 -48 0
-37 -49 0
-38 -43 0
-38 -44 0
-38 -46 0
-38 -47 0
-38 -48 0
-38 -49 0
-39 -43 0
-39 -44 0
-39 -45 0
-39 -47 0
-39 -48 0
-39 -49 0
-40 -43 0
-40 -44 0
-40 -45 0
-40 -46 0
-40 -48 0
-40 -49 0
-41 -43 0
-41 -44 0
-41 -45 0
-41 -46 0
-41 -47 0
-41 -49 0
-42 -43 0
-42 -44 0
-42 -45 0
-42 -46 0
-42 -47 0
-42 -48 0
-36 -58 0
-36 -59 0
-36 -60 0
-36 -61 0
-36 -62 0
-36 -63 0
-37 -57 0
-37 -59 0
-37 -60 0
-37 -61 0
-37 -62 0
-37 -63 0
-38 -57 0
-38 -58 0
-38 -60 0
-38 -61 0
-38 -62 0
-38 -63 0
-39 -57 0
-39 -58 0
-39 -59 0
-39 -61 0
-39 -62 0
-39 -63 0
-40 -57 0
-40 -58 0
-40 -59 0
-40 -60 0
-40 -62 0
-40 -63 0
-41 -57 0
-41 -58 0
-41 -59 0
-41 -60 0
-41 -61 0
-41 -63 0
-42 -57 0
-42 -58 0
-42 -59 0
-42 -60 0
-42 -61 0
-42 -62 0
-36 -79 0
-36 -80 0
-36 -81 0
-36 -82 0
-36 -83 0
-36 -84 0
-37 -78 0
-37 -80 0
-37 -81 0
-37 -82 0
-37 -83 0
-37 -84 0
-38 -78 0
-38 -79 0
-38 -81 0
-38 -82 0
-38 -83 0
-38 -84 0
-39 -78 0
-39 -79 0
-39 -80 0
-39 -82 0
-39 -83 0
-39 -84 0
-40 -78 0
-40 -79 0
-40 -80 0
-40 -81 0
-40 -83 0
-40 -84 0
-41 -78 0
-41 -79 0
-41 -80 0
-41 -81 0
-41 -82 0
-41 -84 0
-42 -78 0
-42 -79 0
-42 -80 0
-42 -81 0
-42 -82 0
-42 -83 0
-43 -86 0
-43 -87 0
-43 -88 0
-43 -89 0
-43 -90 0
-43 -91 0
-44 -85 0
-44 -87 0
-44 -88 0
-44 -89 0
-44 -90 0
-44 -91 0
-45 -85 0
-45 -86 0
-45 -88 0
-45 -89 0
-45 -90 0
-45 -91 0
-46 -85 0
-46 -86 0
-46 -87 0
-46 -89 0
-46 -90 0
-46 -91 0
-47 -85 0
-47 -86 0
-47 -87 0
-47 -88 0
-47 -90 0
-47 -91 0
-48 -85 0
-48 -86 0
-48 -87 0
-48 -88 0
-48 -89 0
-48 -91 0
-49 -85 0
-49 -86 0
-49 -87 0
-49 -88 0
-49 -89 0
-49 -90 0
-43 -107 0
-43 -108 0
-43 -109 0
-43 -110 0
-43 -111 0
-43 -112 0
-44 -106 0
-44 -108 0
-44 -109 0
-44 -110 0
-44 -111 0
-44 -112 0
-45 -106 0
-45 -107 0
-45 -109 0
-45 -110 0
-45 -111 0
-45 -112 0
-46 -106 0
-46 -107 0
-46 -108 0
-46 -110 0
-46 -111 0
-46 -112 0
-47 -106 0
-47 -107 0
-47 -108 0
-47 -109 0
-47 -111 0
-47 -112 0
-48 -106 0
-48 -107 0
-48 -108 0
-48 -109 0
-48 -110 0
-48 -112 0
-49 -106 0
-49 -107 0
-49 -108 0
-49 -109 0
-49 -110 0
-49 -111 0
-50 -65 0
-50 -66 0
-50 -67 0
-50 -68 0
-50 -69 0
-50 -70 0
-51 -64 0
-51 -66 0
-51 -67 0
-51 -68 0
-51 -69 0
-51 -70 0
-52 -64 0
-52 -65 0
-52 -67 0
-52 -68 0
-52 -69 0
-52 -70 0
-53 -64 0
-53 -65 0
-53 -66 0
-53 -68 0
-53 -69 0
-53 -70 0
-54 -64 0
-54 -65 0
-54 -66 0
-54 -67 0
-54 -69 0
-54 -70 0
-55 -64 0
-55 -65 0
-55 -66 0
-55 -67 0
-55 -68 0
-55 -70 0
-56 -64 0
-56 -65 0
-56 -66 0
-56 -67 0
-56 -68 0
-56 -69 0
-50 -79 0
-50 -80 0
-50 -81 0
-50 -82 0
-50 -83 0
-50 -84 0
-51 -78 0
-51 -80 0
-51 -81 0
-51 -82 0
-51 -83 0
-51 -84 0
-52 -78 0
-52 -79 0
-52 -81 0
-52 -82 0
-52 -83 0
-52 -84 0
-53 -78 0
-53 -79 0
-53 -80 0
-53 -82 0
-53 -83 0
-53 -84 0
-54 -78 0
-54 -79 0
-54 -80 0
-54 -81 0
-54 -83 0
-54 -84 0
-55 -78 0
-55 -79 0
-55 -80 0
-55 -81 0
-55 -82 0
-55 -84 0
-56 -78 0
-56 -79 0
-56 -80 0
-56 -81 0
-56 -82 0
-56 -83 0
-50 -93 0
-50 -94 0
-50 -95 0
-50 -96 0
-50 -97 0
-50 -98 0
-51 -92 0
-51 -94 0
-51 -95 0
-51 -96 0
-51 -97 0
-51 -98 0
-52 -92 0
-52 -93 0
-52 -95 0
-52 -96 0
-52 -97 0
-52 -98 0
-53 -92 0
-53 -93 0
-53 -94 0
-53 -96 0
-53 -97 0
-53 -98 0
-54 -92 0
-54 -93 0
-54 -94 0
-54 -95 0
-54 -97 0
-54 -98 0
-55 -92 0
-55 -93 0
-55 -94 0
-55 -95 0
-55 -96 0
-55 -98 0
-56 -92 0
-56 -93 0
-56 -94 0
-56 -95 0
-56 -96 0
-56 -97 0
-50 -100 0
-50 -101 0
-50 -102 0
-50 -103 0
-50 -104 0
-50 -105 0
-51 -99 0
-51 -101 0
-51 -102 0
-51 -103 0
-51 -104 0
-51 -105 0
-52 -99 0
-52 -100 0
-52 -102 0
-52 -103 0
-52 -104 0
-52 -105 0
-53 -99 0
-53 -100 0
-53 -101 0
-53 -103 0
-53 -104 0
-53 -105 0
-54 -99 0
-54 -100 0
-54 -101 0
-54 -102 0
-54 -104 0
-54 -105 0
-55 -99 0
-55 -100 0
-55 -101 0
-55 -102 0
-55 -103 0
-55 -105 0
-56 -99 0
-56 -100 0
-56 -101 0
-56 -102 0
-56 -103 0
-56 -104 0
-50 -107 0
-50 -108 0
-50 -109 0
-50 -110 0
-50 -111 0
-50 -112 0
-51 -106 0
-51 -108 0
-51 -109 0
-51 -110 0
-51 -111 0
-51 -112 0
-52 -106 0
-52 -107 0
-52 -109 0
-52 -110 0
-52 -111 0
-52 -112 0
-53 -106 0
-53 -107 0
-53 -108 0
-53 -110 0
-53 -111 0
-53 -112 0
-54 -106 0
-54 -107 0
-54 -108 0
-54 -109 0
-54 -111 0
-54 -112 0
-55 -106 0
-55 -107 0
-55 -108 0
-55 -109 0
-55 -110 0
-55 -112 0
-56 -106 0
-56 -107 0
-56 -108 0
-56 -109 0
-56 -110 0
-56 -111 0
-57 -114 0
-57 -115 0
-57 -116 0
-57 -117 0
-57 -118 0
-57 -119 0
-58 -113 0
-58 -115 0
-58 -116 0
-58 -117 0
-58 -118 0
-58 -119 0
-59 -113 0
-59 -114 0
-59 -116 0
-59 -117 0
-59 -118 0
-59 -119 0
-60 -113 0
-60 -114 0
-60 -115 0
-60 -117 0
-60 -118 0
-60 -119 0
-61 -113 0
-61 -114 0
-61 -115 0
-61 -116 0
-61 -118 0
-61 -119 0
-62 -113 0
-62 -114 0
-62 -115 0
-62 -116 0
-62 -117 0
-62 -119 0
-63 -113 0
-63 -114 0
-63 -115 0
-63 -116 0
-63 -117 0
-63 -118 0
-64 -72 0
-64 -73 0
-64 -74 0
-64 -75 0
-64 -76 0
-64 -77 0
-65 -71 0
-65 -73 0
-65 -74 0
-65 -75 0
-65 -76 0
-65 -77 0
-66 -71 0
-66 -72 0
-66 -74 0
-66 -75 0
-66 -76 0
-66 -77 0
-67 -71 0
-67 -72 0
-67 -73 0
-67 -75 0
-67 -76 0
-67 -77 0
-68 -71 0
-68 -72 0
-68 -73 0
-68 -74 0
-68 -76 0
-68 -77 0
-69 -71 0
-69 -72 0
-69 -73 0
-69 -74 0
-69 -75 0
-69 -77 0
-70 -71 0
-70 -72 0
-70 -73 0
-70 -74 0
-70 -75 0
-70 -76 0
-64 -79 0
-64 -80 0
-64 -81 0
-64 -82 0
-64 -83 0
-64 -84 0
-65 -78 0
-65 -80 0
-65 -81 0
-65 -82 0
-65 -83 0
-65 -84 0
-66 -78 0
-66 -79 0
-66 -81 0
-66 -82 0
-66 -83 0
-66 -84 0
-67 -78 0
-67 -79 0
-67 -80 0
-67 -82 0
-67 -83 0
-67 -84 0
-68 -78 0
-68 -79 0
-68 -80 0
-68 -81 0
-68 -83 0
-68 -84 0
-69 -78 0
-69 -79 0
-69 -80 0
-69 -81 0
-69 -82 0
-69 -84 0
-70 -78 0
-70 -79 0
-70 -80 0
-70 -81 0
-70 -82 0
-70 -83 0
-64 -93 0
-64 -94 0
-64 -95 0
-64 -96 0
-64 -97 0
-64 -98 0
-65 -92 0
-65 -94 0
-65 -95 0
-65 -96 0
-65 -97 0
-65 -98 0
-66 -92 0
-66 -93 0
-66 -95 0
-66 -96 0
-66 -97 0
-66 -98 0
-67 -92 0
-67 -93 0
-67 -94 0
-67 -96 0
-67 -97 0
-67 -98 0
-68 -92 0
-68 -93 0
-68 -94 0
-68 -95 0
-68 -97 0
-68 -98 0
-69 -92 0
-69 -93 0
-69 -94 0
-69 -95 0
-69 -96 0
-69 -98 0
-70 -92 0
-70 -93 0
-70 -94 0
-70 -95 0
-70 -96 0
-70 -97 0
-64 -107 0
-64 -108 0
-64 -109 0
-64 -110 0
-64 -111 0
-64 -112 0
-65 -106 0
-65 -108 0
-65 -109 0
-65 -110 0
-65 -111 0
-65 -112 0
-66 -106 0
-66 -107 0
-66 -109 0
-66 -110 0
-66 -111 0
-66 -112 0
-67 -106 0
-67 -107 0
-67 -108 0
-67 -110 0
-67 -111 0
-67 -112 0
-68 -106 0
-68 -107 0
-68 -108 0
-68 -109 0
-68 -111 0
-68 -112 0
-69 -106 0
-69 -107 0
-69 -108 0
-69 -109 0
-69 -110 0
-69 -112 0
-70 -106 0
-70 -107 0
-70 -108 0
-70 -109 0
-70 -110 0
-70 -111 0
-64 -114 0
-64 -115 0
-64 -116 0
-64 -117 0
-64 -118 0
-64 -119 0
-65 -113 0
-65 -115 0
-65 -116 0
-65 -117 0
-65 -118 0
-65 -119 0
-66 -113 0
-66 -114 0
-66 -116 0
-66 -117 0
-66 -118 0
-66 -119 0
-67 -113 0
-67 -114 0
-67 -115 0
-67 -117 0
-67 -118 0
-67 -119 0
-68 -113 0
-68 -114 0
-68 -115 0
-68 -116 0
-68 -118 0
-68 -119 0
-69 -113 0
-69 -114 0
-69 -115 0
-69 -116 0
-69 -117 0
-69 -119 0
-70 -113 0
-70 -114 0
-70 -115 0
-70 -116 0
-70 -117 0
-70 -118 0
-71 -86 0
-71 -87 0
-71 -88 0
-71 -89 0
-71 -90 0
-71 -91 0
-72 -85 0
-72 -87 0
-72 -88 0
-72 -89 0
-72 -90 0
-72 -91 0
-73 -85 0
-73 -86 0
-73 -88 0
-73 -89 0
-73 -90 0
-73 -91 0
-74 -85 0
-74 -86 0
-74 -87 0
-74 -89 0
-74 -90 0
-74 -91 0
-75 -85 0
-75 -86 0
-75 -87 0
-75 -88 0
-75 -90 0
-75 -91 0
-76 -85 0
-76 -86 0
-76 -87 0
-76 -88 0
-76 -89 0
-76 -91 0
-77 -85 0
-77 -86 0
-77 -87 0
-77 -88 0
-77 -89 0
-77 -90 0
-71 -93 0
-71 -94 0
-71 -95 0
-71 -96 0
-71 -97 0
-71 -98 0
-72 -92 0
-72 -94 0
-72 -95 0
-72 -96 0
-72 -97 0
-72 -98 0
-73 -92 0
-73 -93 0
-73 -95 0
-73 -96 0
-73 -97 0
-73 -98 0
-74 -92 0
-74 -93 0
-74 -94 0
-74 -96 0
-74 -97 0
-74 -98 0
-75 -92 0
-75 -93 0
-75 -94 0
-75 -95 0
-75 -97 0
-75 -98 0
-76 -92 0
-76 -93 0
-76 -94 0
-76 -95 0
-76 -96 0
-76 -98 0
-77 -92 0
-77 -93 0
-77 -94 0
-77 -95 0
-77 -96 0
-77 -97 0
-78 -86 0
-78 -87 0
-78 -88 0
-78 -89 0
-78 -90 0
-78 -91 0
-79 -85 0
-79 -87 0
-79 -88 0
-79 -89 0
-79 -90 0
-79 -91 0
-80 -85 0
-80 -86 0
-80 -88 0
-80 -89 0
-80 -90 0
-80 -91 0
-81 -85 0
-81 -86 0
-81 -87 0
-81 -89 0
-81 -90 0
-81 -91 0
-82 -85 0
-82 -86 0
-82 -87 0
-82 -88 0
-82 -90 0
-82 -91 0
-83 -85 0
-83 -86 0
-83 -87 0
-83 -88 0
-83 -89 0
-83 -91 0
-84 -85 0
-84 -86 0
-84 -87 0
-84 -88 0
-84 -89 0
-84 -90 0
-78 -107 0
-78 -108 0
-78 -109 0
-78 -110 0
-78 -111 0
-78 -112 0
-79 -106 0
-79 -108 0
-79 -109 0
-79 -110 0
-79 -111 0
-79 -112 0
-80 -106 0
-80 -107 0
-80 -109 0
-80 -110 0
-80 -111 0
-80 -112 0
-81 -106 0
-81 -107 0
-81 -108 0
-81 -110 0
-81 -111 0
-81 -112 0
-82 -106 0
-82 -107 0
-82 -108 0
-82 -109 0
-82 -111 0
-82 -112 0
-83 -106 0
-83 -107 0
-83 -108 0
-83 -109 0
-83 -110 0
-83 -112 0
-84 -106 0
-84 -107 0
-84 -108 0
-84 -109 0
-84 -110 0
-84 -111 0
-92 -114 0
-92 -115 0
-92 -116 0
-92 -117 0
-92 -118 0
-92 -119 0
-93 -113 0
-93 -115 0
-93 -116 0
-93 -117 0
-93 -118 0
-93 -119 0
-94 -113 0
-94 -114 0
-94 -116 0
-94 -117 0
-94 -118 0
-94 -119 0
-95 -113 0
-95 -114 0
-95 -115 0
-95 -117 0
-95 -118 0
-95 -119 0
-96 -113 0
-96 -114 0
-96 -115 0
-96 -116 0
-96 -118 0
-96 -119 0
-97 -113 0
-97 -114 0
-97 -115 0
-97 -116 0
-97 -117 0
-97 -119 0
-98 -113 0
-98 -114 0
-98 -115 0
-98 -116 0
-98 -117 0
-98 -118 0
-99 -107 0
-99 -108 0
-99 -109 0
-99 -110 0
-99 -111 0
-99 -112 0
-100 -106 0
-100 -108 0
-100 -109 0
-100 -110 0
-100 -111 0
-100 -112 0
-101 -106 0
-101 -107 0
-101 -109 0
-101 -110 0
-101 -111 0
-101 -112 0
-102 -106 0
-102 -107 0
-102 -108 0
-102 -110 0
-102 -111 0
-102 -112 0
-103 -106 0
-103 -107 0
-103 -108 0
-103 -109 0
-103 -111 0
-103 -112 0
-104 -106 0
-104 -107 0
-104 -108 0
-104 -109 0
-104 -110 0
-104 -112 0
-105 -106 0
-105 -107 0
-105 -108 0
-105 -109 0
-105 -110 0
-105 -111 0
